c File: flat200_3_0.col
c
c SOURCE: Joseph Culberson (joe@cs.ualberta.ca)
c DESCRIPTION: Quasi-random coloring problem
c              generated with flatness = 0
c                             probability = 0.036
c                             known coloring = 3
c                             random seed = 1081
c              Creation Date:  Wed Feb 24 10:40:14 1999
c Maximum degree = 8 Minimum degree = 0
c COLOR VERIFICATION: Using the permuted order
c under simple greedy yields the specified
c coloring number
c Color = 3 specified partitions = 3
c p edge 200 479
c cnf created by edge2cnf
p cnf 600 2237
-1 -2 0
-1 -3 0
-2 -3 0
1 2 3 0
-4 -5 0
-4 -6 0
-5 -6 0
4 5 6 0
-7 -8 0
-7 -9 0
-8 -9 0
7 8 9 0
-10 -11 0
-10 -12 0
-11 -12 0
10 11 12 0
-13 -14 0
-13 -15 0
-14 -15 0
13 14 15 0
-16 -17 0
-16 -18 0
-17 -18 0
16 17 18 0
-19 -20 0
-19 -21 0
-20 -21 0
19 20 21 0
-22 -23 0
-22 -24 0
-23 -24 0
22 23 24 0
-25 -26 0
-25 -27 0
-26 -27 0
25 26 27 0
-28 -29 0
-28 -30 0
-29 -30 0
28 29 30 0
-31 -32 0
-31 -33 0
-32 -33 0
31 32 33 0
-34 -35 0
-34 -36 0
-35 -36 0
34 35 36 0
-37 -38 0
-37 -39 0
-38 -39 0
37 38 39 0
-40 -41 0
-40 -42 0
-41 -42 0
40 41 42 0
-43 -44 0
-43 -45 0
-44 -45 0
43 44 45 0
-46 -47 0
-46 -48 0
-47 -48 0
46 47 48 0
-49 -50 0
-49 -51 0
-50 -51 0
49 50 51 0
-52 -53 0
-52 -54 0
-53 -54 0
52 53 54 0
-55 -56 0
-55 -57 0
-56 -57 0
55 56 57 0
-58 -59 0
-58 -60 0
-59 -60 0
58 59 60 0
-61 -62 0
-61 -63 0
-62 -63 0
61 62 63 0
-64 -65 0
-64 -66 0
-65 -66 0
64 65 66 0
-67 -68 0
-67 -69 0
-68 -69 0
67 68 69 0
-70 -71 0
-70 -72 0
-71 -72 0
70 71 72 0
-73 -74 0
-73 -75 0
-74 -75 0
73 74 75 0
-76 -77 0
-76 -78 0
-77 -78 0
76 77 78 0
-79 -80 0
-79 -81 0
-80 -81 0
79 80 81 0
-82 -83 0
-82 -84 0
-83 -84 0
82 83 84 0
-85 -86 0
-85 -87 0
-86 -87 0
85 86 87 0
-88 -89 0
-88 -90 0
-89 -90 0
88 89 90 0
-91 -92 0
-91 -93 0
-92 -93 0
91 92 93 0
-94 -95 0
-94 -96 0
-95 -96 0
94 95 96 0
-97 -98 0
-97 -99 0
-98 -99 0
97 98 99 0
-100 -101 0
-100 -102 0
-101 -102 0
100 101 102 0
-103 -104 0
-103 -105 0
-104 -105 0
103 104 105 0
-106 -107 0
-106 -108 0
-107 -108 0
106 107 108 0
-109 -110 0
-109 -111 0
-110 -111 0
109 110 111 0
-112 -113 0
-112 -114 0
-113 -114 0
112 113 114 0
-115 -116 0
-115 -117 0
-116 -117 0
115 116 117 0
-118 -119 0
-118 -120 0
-119 -120 0
118 119 120 0
-121 -122 0
-121 -123 0
-122 -123 0
121 122 123 0
-124 -125 0
-124 -126 0
-125 -126 0
124 125 126 0
-127 -128 0
-127 -129 0
-128 -129 0
127 128 129 0
-130 -131 0
-130 -132 0
-131 -132 0
130 131 132 0
-133 -134 0
-133 -135 0
-134 -135 0
133 134 135 0
-136 -137 0
-136 -138 0
-137 -138 0
136 137 138 0
-139 -140 0
-139 -141 0
-140 -141 0
139 140 141 0
-142 -143 0
-142 -144 0
-143 -144 0
142 143 144 0
-145 -146 0
-145 -147 0
-146 -147 0
145 146 147 0
-148 -149 0
-148 -150 0
-149 -150 0
148 149 150 0
-151 -152 0
-151 -153 0
-152 -153 0
151 152 153 0
-154 -155 0
-154 -156 0
-155 -156 0
154 155 156 0
-157 -158 0
-157 -159 0
-158 -159 0
157 158 159 0
-160 -161 0
-160 -162 0
-161 -162 0
160 161 162 0
-163 -164 0
-163 -165 0
-164 -165 0
163 164 165 0
-166 -167 0
-166 -168 0
-167 -168 0
166 167 168 0
-169 -170 0
-169 -171 0
-170 -171 0
169 170 171 0
-172 -173 0
-172 -174 0
-173 -174 0
172 173 174 0
-175 -176 0
-175 -177 0
-176 -177 0
175 176 177 0
-178 -179 0
-178 -180 0
-179 -180 0
178 179 180 0
-181 -182 0
-181 -183 0
-182 -183 0
181 182 183 0
-184 -185 0
-184 -186 0
-185 -186 0
184 185 186 0
-187 -188 0
-187 -189 0
-188 -189 0
187 188 189 0
-190 -191 0
-190 -192 0
-191 -192 0
190 191 192 0
-193 -194 0
-193 -195 0
-194 -195 0
193 194 195 0
-196 -197 0
-196 -198 0
-197 -198 0
196 197 198 0
-199 -200 0
-199 -201 0
-200 -201 0
199 200 201 0
-202 -203 0
-202 -204 0
-203 -204 0
202 203 204 0
-205 -206 0
-205 -207 0
-206 -207 0
205 206 207 0
-208 -209 0
-208 -210 0
-209 -210 0
208 209 210 0
-211 -212 0
-211 -213 0
-212 -213 0
211 212 213 0
-214 -215 0
-214 -216 0
-215 -216 0
214 215 216 0
-217 -218 0
-217 -219 0
-218 -219 0
217 218 219 0
-220 -221 0
-220 -222 0
-221 -222 0
220 221 222 0
-223 -224 0
-223 -225 0
-224 -225 0
223 224 225 0
-226 -227 0
-226 -228 0
-227 -228 0
226 227 228 0
-229 -230 0
-229 -231 0
-230 -231 0
229 230 231 0
-232 -233 0
-232 -234 0
-233 -234 0
232 233 234 0
-235 -236 0
-235 -237 0
-236 -237 0
235 236 237 0
-238 -239 0
-238 -240 0
-239 -240 0
238 239 240 0
-241 -242 0
-241 -243 0
-242 -243 0
241 242 243 0
-244 -245 0
-244 -246 0
-245 -246 0
244 245 246 0
-247 -248 0
-247 -249 0
-248 -249 0
247 248 249 0
-250 -251 0
-250 -252 0
-251 -252 0
250 251 252 0
-253 -254 0
-253 -255 0
-254 -255 0
253 254 255 0
-256 -257 0
-256 -258 0
-257 -258 0
256 257 258 0
-259 -260 0
-259 -261 0
-260 -261 0
259 260 261 0
-262 -263 0
-262 -264 0
-263 -264 0
262 263 264 0
-265 -266 0
-265 -267 0
-266 -267 0
265 266 267 0
-268 -269 0
-268 -270 0
-269 -270 0
268 269 270 0
-271 -272 0
-271 -273 0
-272 -273 0
271 272 273 0
-274 -275 0
-274 -276 0
-275 -276 0
274 275 276 0
-277 -278 0
-277 -279 0
-278 -279 0
277 278 279 0
-280 -281 0
-280 -282 0
-281 -282 0
280 281 282 0
-283 -284 0
-283 -285 0
-284 -285 0
283 284 285 0
-286 -287 0
-286 -288 0
-287 -288 0
286 287 288 0
-289 -290 0
-289 -291 0
-290 -291 0
289 290 291 0
-292 -293 0
-292 -294 0
-293 -294 0
292 293 294 0
-295 -296 0
-295 -297 0
-296 -297 0
295 296 297 0
-298 -299 0
-298 -300 0
-299 -300 0
298 299 300 0
-301 -302 0
-301 -303 0
-302 -303 0
301 302 303 0
-304 -305 0
-304 -306 0
-305 -306 0
304 305 306 0
-307 -308 0
-307 -309 0
-308 -309 0
307 308 309 0
-310 -311 0
-310 -312 0
-311 -312 0
310 311 312 0
-313 -314 0
-313 -315 0
-314 -315 0
313 314 315 0
-316 -317 0
-316 -318 0
-317 -318 0
316 317 318 0
-319 -320 0
-319 -321 0
-320 -321 0
319 320 321 0
-322 -323 0
-322 -324 0
-323 -324 0
322 323 324 0
-325 -326 0
-325 -327 0
-326 -327 0
325 326 327 0
-328 -329 0
-328 -330 0
-329 -330 0
328 329 330 0
-331 -332 0
-331 -333 0
-332 -333 0
331 332 333 0
-334 -335 0
-334 -336 0
-335 -336 0
334 335 336 0
-337 -338 0
-337 -339 0
-338 -339 0
337 338 339 0
-340 -341 0
-340 -342 0
-341 -342 0
340 341 342 0
-343 -344 0
-343 -345 0
-344 -345 0
343 344 345 0
-346 -347 0
-346 -348 0
-347 -348 0
346 347 348 0
-349 -350 0
-349 -351 0
-350 -351 0
349 350 351 0
-352 -353 0
-352 -354 0
-353 -354 0
352 353 354 0
-355 -356 0
-355 -357 0
-356 -357 0
355 356 357 0
-358 -359 0
-358 -360 0
-359 -360 0
358 359 360 0
-361 -362 0
-361 -363 0
-362 -363 0
361 362 363 0
-364 -365 0
-364 -366 0
-365 -366 0
364 365 366 0
-367 -368 0
-367 -369 0
-368 -369 0
367 368 369 0
-370 -371 0
-370 -372 0
-371 -372 0
370 371 372 0
-373 -374 0
-373 -375 0
-374 -375 0
373 374 375 0
-376 -377 0
-376 -378 0
-377 -378 0
376 377 378 0
-379 -380 0
-379 -381 0
-380 -381 0
379 380 381 0
-382 -383 0
-382 -384 0
-383 -384 0
382 383 384 0
-385 -386 0
-385 -387 0
-386 -387 0
385 386 387 0
-388 -389 0
-388 -390 0
-389 -390 0
388 389 390 0
-391 -392 0
-391 -393 0
-392 -393 0
391 392 393 0
-394 -395 0
-394 -396 0
-395 -396 0
394 395 396 0
-397 -398 0
-397 -399 0
-398 -399 0
397 398 399 0
-400 -401 0
-400 -402 0
-401 -402 0
400 401 402 0
-403 -404 0
-403 -405 0
-404 -405 0
403 404 405 0
-406 -407 0
-406 -408 0
-407 -408 0
406 407 408 0
-409 -410 0
-409 -411 0
-410 -411 0
409 410 411 0
-412 -413 0
-412 -414 0
-413 -414 0
412 413 414 0
-415 -416 0
-415 -417 0
-416 -417 0
415 416 417 0
-418 -419 0
-418 -420 0
-419 -420 0
418 419 420 0
-421 -422 0
-421 -423 0
-422 -423 0
421 422 423 0
-424 -425 0
-424 -426 0
-425 -426 0
424 425 426 0
-427 -428 0
-427 -429 0
-428 -429 0
427 428 429 0
-430 -431 0
-430 -432 0
-431 -432 0
430 431 432 0
-433 -434 0
-433 -435 0
-434 -435 0
433 434 435 0
-436 -437 0
-436 -438 0
-437 -438 0
436 437 438 0
-439 -440 0
-439 -441 0
-440 -441 0
439 440 441 0
-442 -443 0
-442 -444 0
-443 -444 0
442 443 444 0
-445 -446 0
-445 -447 0
-446 -447 0
445 446 447 0
-448 -449 0
-448 -450 0
-449 -450 0
448 449 450 0
-451 -452 0
-451 -453 0
-452 -453 0
451 452 453 0
-454 -455 0
-454 -456 0
-455 -456 0
454 455 456 0
-457 -458 0
-457 -459 0
-458 -459 0
457 458 459 0
-460 -461 0
-460 -462 0
-461 -462 0
460 461 462 0
-463 -464 0
-463 -465 0
-464 -465 0
463 464 465 0
-466 -467 0
-466 -468 0
-467 -468 0
466 467 468 0
-469 -470 0
-469 -471 0
-470 -471 0
469 470 471 0
-472 -473 0
-472 -474 0
-473 -474 0
472 473 474 0
-475 -476 0
-475 -477 0
-476 -477 0
475 476 477 0
-478 -479 0
-478 -480 0
-479 -480 0
478 479 480 0
-481 -482 0
-481 -483 0
-482 -483 0
481 482 483 0
-484 -485 0
-484 -486 0
-485 -486 0
484 485 486 0
-487 -488 0
-487 -489 0
-488 -489 0
487 488 489 0
-490 -491 0
-490 -492 0
-491 -492 0
490 491 492 0
-493 -494 0
-493 -495 0
-494 -495 0
493 494 495 0
-496 -497 0
-496 -498 0
-497 -498 0
496 497 498 0
-499 -500 0
-499 -501 0
-500 -501 0
499 500 501 0
-502 -503 0
-502 -504 0
-503 -504 0
502 503 504 0
-505 -506 0
-505 -507 0
-506 -507 0
505 506 507 0
-508 -509 0
-508 -510 0
-509 -510 0
508 509 510 0
-511 -512 0
-511 -513 0
-512 -513 0
511 512 513 0
-514 -515 0
-514 -516 0
-515 -516 0
514 515 516 0
-517 -518 0
-517 -519 0
-518 -519 0
517 518 519 0
-520 -521 0
-520 -522 0
-521 -522 0
520 521 522 0
-523 -524 0
-523 -525 0
-524 -525 0
523 524 525 0
-526 -527 0
-526 -528 0
-527 -528 0
526 527 528 0
-529 -530 0
-529 -531 0
-530 -531 0
529 530 531 0
-532 -533 0
-532 -534 0
-533 -534 0
532 533 534 0
-535 -536 0
-535 -537 0
-536 -537 0
535 536 537 0
-538 -539 0
-538 -540 0
-539 -540 0
538 539 540 0
-541 -542 0
-541 -543 0
-542 -543 0
541 542 543 0
-544 -545 0
-544 -546 0
-545 -546 0
544 545 546 0
-547 -548 0
-547 -549 0
-548 -549 0
547 548 549 0
-550 -551 0
-550 -552 0
-551 -552 0
550 551 552 0
-553 -554 0
-553 -555 0
-554 -555 0
553 554 555 0
-556 -557 0
-556 -558 0
-557 -558 0
556 557 558 0
-559 -560 0
-559 -561 0
-560 -561 0
559 560 561 0
-562 -563 0
-562 -564 0
-563 -564 0
562 563 564 0
-565 -566 0
-565 -567 0
-566 -567 0
565 566 567 0
-568 -569 0
-568 -570 0
-569 -570 0
568 569 570 0
-571 -572 0
-571 -573 0
-572 -573 0
571 572 573 0
-574 -575 0
-574 -576 0
-575 -576 0
574 575 576 0
-577 -578 0
-577 -579 0
-578 -579 0
577 578 579 0
-580 -581 0
-580 -582 0
-581 -582 0
580 581 582 0
-583 -584 0
-583 -585 0
-584 -585 0
583 584 585 0
-586 -587 0
-586 -588 0
-587 -588 0
586 587 588 0
-589 -590 0
-589 -591 0
-590 -591 0
589 590 591 0
-592 -593 0
-592 -594 0
-593 -594 0
592 593 594 0
-595 -596 0
-595 -597 0
-596 -597 0
595 596 597 0
-598 -599 0
-598 -600 0
-599 -600 0
598 599 600 0
-181 -1 0
-182 -2 0
-183 -3 0
-238 -1 0
-239 -2 0
-240 -3 0
-478 -1 0
-479 -2 0
-480 -3 0
-490 -1 0
-491 -2 0
-492 -3 0
-58 -4 0
-59 -5 0
-60 -6 0
-64 -4 0
-65 -5 0
-66 -6 0
-94 -4 0
-95 -5 0
-96 -6 0
-259 -4 0
-260 -5 0
-261 -6 0
-379 -4 0
-380 -5 0
-381 -6 0
-268 -7 0
-269 -8 0
-270 -9 0
-544 -7 0
-545 -8 0
-546 -9 0
-25 -10 0
-26 -11 0
-27 -12 0
-244 -10 0
-245 -11 0
-246 -12 0
-268 -10 0
-269 -11 0
-270 -12 0
-316 -10 0
-317 -11 0
-318 -12 0
-367 -10 0
-368 -11 0
-369 -12 0
-457 -10 0
-458 -11 0
-459 -12 0
-484 -10 0
-485 -11 0
-486 -12 0
-565 -10 0
-566 -11 0
-567 -12 0
-40 -13 0
-41 -14 0
-42 -15 0
-49 -13 0
-50 -14 0
-51 -15 0
-217 -13 0
-218 -14 0
-219 -15 0
-271 -13 0
-272 -14 0
-273 -15 0
-289 -13 0
-290 -14 0
-291 -15 0
-505 -13 0
-506 -14 0
-507 -15 0
-538 -13 0
-539 -14 0
-540 -15 0
-541 -13 0
-542 -14 0
-543 -15 0
-76 -16 0
-77 -17 0
-78 -18 0
-142 -16 0
-143 -17 0
-144 -18 0
-382 -16 0
-383 -17 0
-384 -18 0
-385 -16 0
-386 -17 0
-387 -18 0
-436 -16 0
-437 -17 0
-438 -18 0
-598 -16 0
-599 -17 0
-600 -18 0
-106 -19 0
-107 -20 0
-108 -21 0
-115 -19 0
-116 -20 0
-117 -21 0
-133 -19 0
-134 -20 0
-135 -21 0
-310 -19 0
-311 -20 0
-312 -21 0
-433 -19 0
-434 -20 0
-435 -21 0
-85 -22 0
-86 -23 0
-87 -24 0
-445 -22 0
-446 -23 0
-447 -24 0
-454 -22 0
-455 -23 0
-456 -24 0
-466 -22 0
-467 -23 0
-468 -24 0
-136 -25 0
-137 -26 0
-138 -27 0
-298 -25 0
-299 -26 0
-300 -27 0
-355 -25 0
-356 -26 0
-357 -27 0
-379 -28 0
-380 -29 0
-381 -30 0
-61 -31 0
-62 -32 0
-63 -33 0
-376 -31 0
-377 -32 0
-378 -33 0
-475 -31 0
-476 -32 0
-477 -33 0
-514 -31 0
-515 -32 0
-516 -33 0
-595 -31 0
-596 -32 0
-597 -33 0
-73 -34 0
-74 -35 0
-75 -36 0
-124 -34 0
-125 -35 0
-126 -36 0
-166 -34 0
-167 -35 0
-168 -36 0
-205 -34 0
-206 -35 0
-207 -36 0
-241 -34 0
-242 -35 0
-243 -36 0
-484 -34 0
-485 -35 0
-486 -36 0
-394 -37 0
-395 -38 0
-396 -39 0
-415 -37 0
-416 -38 0
-417 -39 0
-253 -40 0
-254 -41 0
-255 -42 0
-325 -40 0
-326 -41 0
-327 -42 0
-400 -40 0
-401 -41 0
-402 -42 0
-439 -40 0
-440 -41 0
-441 -42 0
-478 -40 0
-479 -41 0
-480 -42 0
-91 -43 0
-92 -44 0
-93 -45 0
-157 -43 0
-158 -44 0
-159 -45 0
-178 -43 0
-179 -44 0
-180 -45 0
-226 -43 0
-227 -44 0
-228 -45 0
-280 -43 0
-281 -44 0
-282 -45 0
-577 -43 0
-578 -44 0
-579 -45 0
-214 -46 0
-215 -47 0
-216 -48 0
-337 -46 0
-338 -47 0
-339 -48 0
-535 -46 0
-536 -47 0
-537 -48 0
-568 -46 0
-569 -47 0
-570 -48 0
-214 -49 0
-215 -50 0
-216 -51 0
-235 -49 0
-236 -50 0
-237 -51 0
-268 -49 0
-269 -50 0
-270 -51 0
-424 -49 0
-425 -50 0
-426 -51 0
-115 -52 0
-116 -53 0
-117 -54 0
-250 -52 0
-251 -53 0
-252 -54 0
-421 -52 0
-422 -53 0
-423 -54 0
-466 -52 0
-467 -53 0
-468 -54 0
-487 -52 0
-488 -53 0
-489 -54 0
-502 -52 0
-503 -53 0
-504 -54 0
-529 -52 0
-530 -53 0
-531 -54 0
-565 -52 0
-566 -53 0
-567 -54 0
-238 -55 0
-239 -56 0
-240 -57 0
-316 -55 0
-317 -56 0
-318 -57 0
-475 -55 0
-476 -56 0
-477 -57 0
-487 -55 0
-488 -56 0
-489 -57 0
-202 -58 0
-203 -59 0
-204 -60 0
-238 -58 0
-239 -59 0
-240 -60 0
-247 -58 0
-248 -59 0
-249 -60 0
-265 -58 0
-266 -59 0
-267 -60 0
-499 -58 0
-500 -59 0
-501 -60 0
-562 -58 0
-563 -59 0
-564 -60 0
-238 -61 0
-239 -62 0
-240 -63 0
-283 -61 0
-284 -62 0
-285 -63 0
-403 -61 0
-404 -62 0
-405 -63 0
-430 -61 0
-431 -62 0
-432 -63 0
-559 -61 0
-560 -62 0
-561 -63 0
-253 -64 0
-254 -65 0
-255 -66 0
-589 -64 0
-590 -65 0
-591 -66 0
-205 -67 0
-206 -68 0
-207 -69 0
-469 -67 0
-470 -68 0
-471 -69 0
-106 -70 0
-107 -71 0
-108 -72 0
-421 -70 0
-422 -71 0
-423 -72 0
-454 -70 0
-455 -71 0
-456 -72 0
-532 -70 0
-533 -71 0
-534 -72 0
-535 -70 0
-536 -71 0
-537 -72 0
-568 -70 0
-569 -71 0
-570 -72 0
-577 -70 0
-578 -71 0
-579 -72 0
-178 -73 0
-179 -74 0
-180 -75 0
-388 -73 0
-389 -74 0
-390 -75 0
-547 -73 0
-548 -74 0
-549 -75 0
-97 -76 0
-98 -77 0
-99 -78 0
-214 -76 0
-215 -77 0
-216 -78 0
-319 -76 0
-320 -77 0
-321 -78 0
-370 -76 0
-371 -77 0
-372 -78 0
-484 -76 0
-485 -77 0
-486 -78 0
-337 -79 0
-338 -80 0
-339 -81 0
-343 -79 0
-344 -80 0
-345 -81 0
-370 -79 0
-371 -80 0
-372 -81 0
-568 -79 0
-569 -80 0
-570 -81 0
-241 -82 0
-242 -83 0
-243 -84 0
-358 -82 0
-359 -83 0
-360 -84 0
-493 -82 0
-494 -83 0
-495 -84 0
-553 -82 0
-554 -83 0
-555 -84 0
-304 -85 0
-305 -86 0
-306 -87 0
-313 -85 0
-314 -86 0
-315 -87 0
-328 -85 0
-329 -86 0
-330 -87 0
-460 -85 0
-461 -86 0
-462 -87 0
-514 -85 0
-515 -86 0
-516 -87 0
-100 -88 0
-101 -89 0
-102 -90 0
-196 -88 0
-197 -89 0
-198 -90 0
-346 -88 0
-347 -89 0
-348 -90 0
-430 -88 0
-431 -89 0
-432 -90 0
-499 -88 0
-500 -89 0
-501 -90 0
-262 -91 0
-263 -92 0
-264 -93 0
-295 -91 0
-296 -92 0
-297 -93 0
-538 -91 0
-539 -92 0
-540 -93 0
-346 -94 0
-347 -95 0
-348 -96 0
-361 -94 0
-362 -95 0
-363 -96 0
-406 -94 0
-407 -95 0
-408 -96 0
-574 -94 0
-575 -95 0
-576 -96 0
-208 -97 0
-209 -98 0
-210 -99 0
-220 -97 0
-221 -98 0
-222 -99 0
-286 -97 0
-287 -98 0
-288 -99 0
-487 -97 0
-488 -98 0
-489 -99 0
-130 -100 0
-131 -101 0
-132 -102 0
-301 -100 0
-302 -101 0
-303 -102 0
-448 -100 0
-449 -101 0
-450 -102 0
-502 -100 0
-503 -101 0
-504 -102 0
-112 -103 0
-113 -104 0
-114 -105 0
-220 -103 0
-221 -104 0
-222 -105 0
-304 -103 0
-305 -104 0
-306 -105 0
-313 -103 0
-314 -104 0
-315 -105 0
-331 -103 0
-332 -104 0
-333 -105 0
-121 -106 0
-122 -107 0
-123 -108 0
-259 -106 0
-260 -107 0
-261 -108 0
-415 -106 0
-416 -107 0
-417 -108 0
-418 -106 0
-419 -107 0
-420 -108 0
-568 -106 0
-569 -107 0
-570 -108 0
-193 -109 0
-194 -110 0
-195 -111 0
-256 -109 0
-257 -110 0
-258 -111 0
-397 -109 0
-398 -110 0
-399 -111 0
-439 -109 0
-440 -110 0
-441 -111 0
-484 -109 0
-485 -110 0
-486 -111 0
-193 -112 0
-194 -113 0
-195 -114 0
-295 -112 0
-296 -113 0
-297 -114 0
-523 -112 0
-524 -113 0
-525 -114 0
-529 -112 0
-530 -113 0
-531 -114 0
-376 -115 0
-377 -116 0
-378 -117 0
-508 -115 0
-509 -116 0
-510 -117 0
-526 -115 0
-527 -116 0
-528 -117 0
-220 -118 0
-221 -119 0
-222 -120 0
-355 -118 0
-356 -119 0
-357 -120 0
-556 -118 0
-557 -119 0
-558 -120 0
-196 -121 0
-197 -122 0
-198 -123 0
-208 -121 0
-209 -122 0
-210 -123 0
-481 -121 0
-482 -122 0
-483 -123 0
-514 -121 0
-515 -122 0
-516 -123 0
-526 -121 0
-527 -122 0
-528 -123 0
-190 -124 0
-191 -125 0
-192 -126 0
-202 -124 0
-203 -125 0
-204 -126 0
-322 -124 0
-323 -125 0
-324 -126 0
-343 -124 0
-344 -125 0
-345 -126 0
-400 -124 0
-401 -125 0
-402 -126 0
-193 -127 0
-194 -128 0
-195 -129 0
-229 -127 0
-230 -128 0
-231 -129 0
-244 -127 0
-245 -128 0
-246 -129 0
-352 -127 0
-353 -128 0
-354 -129 0
-133 -130 0
-134 -131 0
-135 -132 0
-301 -130 0
-302 -131 0
-303 -132 0
-403 -130 0
-404 -131 0
-405 -132 0
-541 -130 0
-542 -131 0
-543 -132 0
-214 -133 0
-215 -134 0
-216 -135 0
-226 -133 0
-227 -134 0
-228 -135 0
-331 -133 0
-332 -134 0
-333 -135 0
-508 -133 0
-509 -134 0
-510 -135 0
-157 -136 0
-158 -137 0
-159 -138 0
-343 -136 0
-344 -137 0
-345 -138 0
-397 -136 0
-398 -137 0
-399 -138 0
-469 -136 0
-470 -137 0
-471 -138 0
-175 -139 0
-176 -140 0
-177 -141 0
-253 -139 0
-254 -140 0
-255 -141 0
-331 -139 0
-332 -140 0
-333 -141 0
-409 -139 0
-410 -140 0
-411 -141 0
-475 -139 0
-476 -140 0
-477 -141 0
-571 -139 0
-572 -140 0
-573 -141 0
-361 -142 0
-362 -143 0
-363 -144 0
-373 -142 0
-374 -143 0
-375 -144 0
-454 -142 0
-455 -143 0
-456 -144 0
-229 -145 0
-230 -146 0
-231 -147 0
-358 -145 0
-359 -146 0
-360 -147 0
-535 -145 0
-536 -146 0
-537 -147 0
-550 -145 0
-551 -146 0
-552 -147 0
-163 -148 0
-164 -149 0
-165 -150 0
-283 -148 0
-284 -149 0
-285 -150 0
-325 -148 0
-326 -149 0
-327 -150 0
-583 -148 0
-584 -149 0
-585 -150 0
-259 -151 0
-260 -152 0
-261 -153 0
-361 -151 0
-362 -152 0
-363 -153 0
-370 -151 0
-371 -152 0
-372 -153 0
-442 -151 0
-443 -152 0
-444 -153 0
-583 -151 0
-584 -152 0
-585 -153 0
-295 -157 0
-296 -158 0
-297 -159 0
-307 -157 0
-308 -158 0
-309 -159 0
-493 -157 0
-494 -158 0
-495 -159 0
-529 -157 0
-530 -158 0
-531 -159 0
-550 -157 0
-551 -158 0
-552 -159 0
-571 -157 0
-572 -158 0
-573 -159 0
-271 -160 0
-272 -161 0
-273 -162 0
-391 -160 0
-392 -161 0
-393 -162 0
-490 -160 0
-491 -161 0
-492 -162 0
-562 -163 0
-563 -164 0
-564 -165 0
-385 -166 0
-386 -167 0
-387 -168 0
-526 -166 0
-527 -167 0
-528 -168 0
-184 -169 0
-185 -170 0
-186 -171 0
-199 -169 0
-200 -170 0
-201 -171 0
-232 -169 0
-233 -170 0
-234 -171 0
-178 -172 0
-179 -173 0
-180 -174 0
-286 -172 0
-287 -173 0
-288 -174 0
-352 -172 0
-353 -173 0
-354 -174 0
-472 -172 0
-473 -173 0
-474 -174 0
-292 -175 0
-293 -176 0
-294 -177 0
-337 -175 0
-338 -176 0
-339 -177 0
-427 -175 0
-428 -176 0
-429 -177 0
-586 -175 0
-587 -176 0
-588 -177 0
-328 -178 0
-329 -179 0
-330 -180 0
-265 -181 0
-266 -182 0
-267 -183 0
-337 -181 0
-338 -182 0
-339 -183 0
-376 -181 0
-377 -182 0
-378 -183 0
-403 -181 0
-404 -182 0
-405 -183 0
-265 -184 0
-266 -185 0
-267 -186 0
-274 -184 0
-275 -185 0
-276 -186 0
-346 -184 0
-347 -185 0
-348 -186 0
-379 -184 0
-380 -185 0
-381 -186 0
-445 -184 0
-446 -185 0
-447 -186 0
-460 -184 0
-461 -185 0
-462 -186 0
-475 -184 0
-476 -185 0
-477 -186 0
-211 -187 0
-212 -188 0
-213 -189 0
-274 -187 0
-275 -188 0
-276 -189 0
-361 -187 0
-362 -188 0
-363 -189 0
-430 -187 0
-431 -188 0
-432 -189 0
-586 -187 0
-587 -188 0
-588 -189 0
-193 -190 0
-194 -191 0
-195 -192 0
-337 -190 0
-338 -191 0
-339 -192 0
-478 -190 0
-479 -191 0
-480 -192 0
-241 -193 0
-242 -194 0
-243 -195 0
-319 -193 0
-320 -194 0
-321 -195 0
-415 -193 0
-416 -194 0
-417 -195 0
-511 -193 0
-512 -194 0
-513 -195 0
-223 -196 0
-224 -197 0
-225 -198 0
-403 -196 0
-404 -197 0
-405 -198 0
-418 -196 0
-419 -197 0
-420 -198 0
-475 -196 0
-476 -197 0
-477 -198 0
-310 -199 0
-311 -200 0
-312 -201 0
-352 -199 0
-353 -200 0
-354 -201 0
-523 -199 0
-524 -200 0
-525 -201 0
-559 -199 0
-560 -200 0
-561 -201 0
-232 -202 0
-233 -203 0
-234 -204 0
-409 -202 0
-410 -203 0
-411 -204 0
-415 -202 0
-416 -203 0
-417 -204 0
-508 -202 0
-509 -203 0
-510 -204 0
-217 -205 0
-218 -206 0
-219 -207 0
-262 -205 0
-263 -206 0
-264 -207 0
-253 -208 0
-254 -209 0
-255 -210 0
-409 -208 0
-410 -209 0
-411 -210 0
-559 -208 0
-560 -209 0
-561 -210 0
-277 -211 0
-278 -212 0
-279 -213 0
-385 -211 0
-386 -212 0
-387 -213 0
-418 -214 0
-419 -215 0
-420 -216 0
-508 -214 0
-509 -215 0
-510 -216 0
-283 -217 0
-284 -218 0
-285 -219 0
-382 -217 0
-383 -218 0
-384 -219 0
-580 -217 0
-581 -218 0
-582 -219 0
-286 -220 0
-287 -221 0
-288 -222 0
-547 -220 0
-548 -221 0
-549 -222 0
-307 -223 0
-308 -224 0
-309 -225 0
-394 -223 0
-395 -224 0
-396 -225 0
-547 -223 0
-548 -224 0
-549 -225 0
-565 -223 0
-566 -224 0
-567 -225 0
-592 -223 0
-593 -224 0
-594 -225 0
-232 -226 0
-233 -227 0
-234 -228 0
-361 -226 0
-362 -227 0
-363 -228 0
-388 -226 0
-389 -227 0
-390 -228 0
-421 -226 0
-422 -227 0
-423 -228 0
-574 -226 0
-575 -227 0
-576 -228 0
-583 -226 0
-584 -227 0
-585 -228 0
-241 -229 0
-242 -230 0
-243 -231 0
-304 -229 0
-305 -230 0
-306 -231 0
-592 -229 0
-593 -230 0
-594 -231 0
-391 -232 0
-392 -233 0
-393 -234 0
-400 -232 0
-401 -233 0
-402 -234 0
-481 -232 0
-482 -233 0
-483 -234 0
-451 -235 0
-452 -236 0
-453 -237 0
-460 -235 0
-461 -236 0
-462 -237 0
-481 -235 0
-482 -236 0
-483 -237 0
-514 -235 0
-515 -236 0
-516 -237 0
-568 -238 0
-569 -239 0
-570 -240 0
-412 -241 0
-413 -242 0
-414 -243 0
-418 -241 0
-419 -242 0
-420 -243 0
-520 -241 0
-521 -242 0
-522 -243 0
-316 -244 0
-317 -245 0
-318 -246 0
-373 -247 0
-374 -248 0
-375 -249 0
-418 -247 0
-419 -248 0
-420 -249 0
-364 -250 0
-365 -251 0
-366 -252 0
-415 -250 0
-416 -251 0
-417 -252 0
-562 -250 0
-563 -251 0
-564 -252 0
-586 -250 0
-587 -251 0
-588 -252 0
-292 -253 0
-293 -254 0
-294 -255 0
-265 -256 0
-266 -257 0
-267 -258 0
-418 -256 0
-419 -257 0
-420 -258 0
-442 -256 0
-443 -257 0
-444 -258 0
-448 -256 0
-449 -257 0
-450 -258 0
-580 -256 0
-581 -257 0
-582 -258 0
-385 -259 0
-386 -260 0
-387 -261 0
-406 -259 0
-407 -260 0
-408 -261 0
-268 -262 0
-269 -263 0
-270 -264 0
-406 -262 0
-407 -263 0
-408 -264 0
-340 -265 0
-341 -266 0
-342 -267 0
-397 -265 0
-398 -266 0
-399 -267 0
-520 -265 0
-521 -266 0
-522 -267 0
-544 -265 0
-545 -266 0
-546 -267 0
-376 -268 0
-377 -269 0
-378 -270 0
-388 -268 0
-389 -269 0
-390 -270 0
-487 -268 0
-488 -269 0
-489 -270 0
-373 -271 0
-374 -272 0
-375 -273 0
-394 -271 0
-395 -272 0
-396 -273 0
-484 -271 0
-485 -272 0
-486 -273 0
-427 -274 0
-428 -275 0
-429 -276 0
-541 -274 0
-542 -275 0
-543 -276 0
-571 -274 0
-572 -275 0
-573 -276 0
-352 -277 0
-353 -278 0
-354 -279 0
-481 -277 0
-482 -278 0
-483 -279 0
-406 -280 0
-407 -281 0
-408 -282 0
-373 -283 0
-374 -284 0
-375 -285 0
-481 -283 0
-482 -284 0
-483 -285 0
-373 -286 0
-374 -287 0
-375 -288 0
-559 -286 0
-560 -287 0
-561 -288 0
-400 -289 0
-401 -290 0
-402 -291 0
-481 -289 0
-482 -290 0
-483 -291 0
-298 -295 0
-299 -296 0
-300 -297 0
-457 -295 0
-458 -296 0
-459 -297 0
-592 -298 0
-593 -299 0
-594 -300 0
-517 -301 0
-518 -302 0
-519 -303 0
-592 -301 0
-593 -302 0
-594 -303 0
-430 -304 0
-431 -305 0
-432 -306 0
-340 -307 0
-341 -308 0
-342 -309 0
-559 -307 0
-560 -308 0
-561 -309 0
-589 -307 0
-590 -308 0
-591 -309 0
-457 -310 0
-458 -311 0
-459 -312 0
-349 -313 0
-350 -314 0
-351 -315 0
-505 -313 0
-506 -314 0
-507 -315 0
-586 -313 0
-587 -314 0
-588 -315 0
-379 -316 0
-380 -317 0
-381 -318 0
-595 -316 0
-596 -317 0
-597 -318 0
-334 -319 0
-335 -320 0
-336 -321 0
-457 -319 0
-458 -320 0
-459 -321 0
-484 -319 0
-485 -320 0
-486 -321 0
-493 -319 0
-494 -320 0
-495 -321 0
-520 -322 0
-521 -323 0
-522 -324 0
-403 -325 0
-404 -326 0
-405 -327 0
-430 -325 0
-431 -326 0
-432 -327 0
-469 -325 0
-470 -326 0
-471 -327 0
-433 -328 0
-434 -329 0
-435 -330 0
-487 -328 0
-488 -329 0
-489 -330 0
-577 -328 0
-578 -329 0
-579 -330 0
-334 -331 0
-335 -332 0
-336 -333 0
-409 -331 0
-410 -332 0
-411 -333 0
-451 -331 0
-452 -332 0
-453 -333 0
-595 -331 0
-596 -332 0
-597 -333 0
-358 -334 0
-359 -335 0
-360 -336 0
-511 -334 0
-512 -335 0
-513 -336 0
-562 -334 0
-563 -335 0
-564 -336 0
-454 -340 0
-455 -341 0
-456 -342 0
-565 -340 0
-566 -341 0
-567 -342 0
-451 -346 0
-452 -347 0
-453 -348 0
-487 -346 0
-488 -347 0
-489 -348 0
-505 -352 0
-506 -353 0
-507 -354 0
-382 -355 0
-383 -356 0
-384 -357 0
-400 -355 0
-401 -356 0
-402 -357 0
-439 -355 0
-440 -356 0
-441 -357 0
-550 -355 0
-551 -356 0
-552 -357 0
-574 -355 0
-575 -356 0
-576 -357 0
-361 -358 0
-362 -359 0
-363 -360 0
-412 -358 0
-413 -359 0
-414 -360 0
-481 -361 0
-482 -362 0
-483 -363 0
-508 -361 0
-509 -362 0
-510 -363 0
-370 -364 0
-371 -365 0
-372 -366 0
-547 -364 0
-548 -365 0
-549 -366 0
-517 -367 0
-518 -368 0
-519 -369 0
-430 -376 0
-431 -377 0
-432 -378 0
-568 -376 0
-569 -377 0
-570 -378 0
-445 -379 0
-446 -380 0
-447 -381 0
-538 -379 0
-539 -380 0
-540 -381 0
-595 -379 0
-596 -380 0
-597 -381 0
-394 -382 0
-395 -383 0
-396 -384 0
-469 -382 0
-470 -383 0
-471 -384 0
-433 -388 0
-434 -389 0
-435 -390 0
-442 -388 0
-443 -389 0
-444 -390 0
-496 -388 0
-497 -389 0
-498 -390 0
-523 -388 0
-524 -389 0
-525 -390 0
-454 -391 0
-455 -392 0
-456 -393 0
-406 -394 0
-407 -395 0
-408 -396 0
-595 -394 0
-596 -395 0
-597 -396 0
-508 -397 0
-509 -398 0
-510 -399 0
-415 -400 0
-416 -401 0
-417 -402 0
-586 -400 0
-587 -401 0
-588 -402 0
-418 -406 0
-419 -407 0
-420 -408 0
-445 -406 0
-446 -407 0
-447 -408 0
-469 -409 0
-470 -410 0
-471 -411 0
-499 -409 0
-500 -410 0
-501 -411 0
-541 -409 0
-542 -410 0
-543 -411 0
-433 -412 0
-434 -413 0
-435 -414 0
-517 -412 0
-518 -413 0
-519 -414 0
-472 -418 0
-473 -419 0
-474 -420 0
-535 -421 0
-536 -422 0
-537 -423 0
-442 -424 0
-443 -425 0
-444 -426 0
-448 -424 0
-449 -425 0
-450 -426 0
-463 -424 0
-464 -425 0
-465 -426 0
-472 -427 0
-473 -428 0
-474 -429 0
-598 -427 0
-599 -428 0
-600 -429 0
-502 -439 0
-503 -440 0
-504 -441 0
-517 -439 0
-518 -440 0
-519 -441 0
-463 -442 0
-464 -443 0
-465 -444 0
-484 -442 0
-485 -443 0
-486 -444 0
-514 -445 0
-515 -446 0
-516 -447 0
-580 -445 0
-581 -446 0
-582 -447 0
-481 -448 0
-482 -449 0
-483 -450 0
-598 -448 0
-599 -449 0
-600 -450 0
-586 -451 0
-587 -452 0
-588 -453 0
-472 -454 0
-473 -455 0
-474 -456 0
-505 -454 0
-506 -455 0
-507 -456 0
-532 -460 0
-533 -461 0
-534 -462 0
-541 -463 0
-542 -464 0
-543 -465 0
-589 -463 0
-590 -464 0
-591 -465 0
-511 -466 0
-512 -467 0
-513 -468 0
-514 -469 0
-515 -470 0
-516 -471 0
-550 -469 0
-551 -470 0
-552 -471 0
-553 -475 0
-554 -476 0
-555 -477 0
-511 -487 0
-512 -488 0
-513 -489 0
-568 -493 0
-569 -494 0
-570 -495 0
-574 -493 0
-575 -494 0
-576 -495 0
-595 -496 0
-596 -497 0
-597 -498 0
-592 -502 0
-593 -503 0
-594 -504 0
-565 -511 0
-566 -512 0
-567 -513 0
-580 -514 0
-581 -515 0
-582 -516 0
-538 -517 0
-539 -518 0
-540 -519 0
-562 -520 0
-563 -521 0
-564 -522 0
-574 -520 0
-575 -521 0
-576 -522 0
-544 -529 0
-545 -530 0
-546 -531 0
-568 -529 0
-569 -530 0
-570 -531 0
-592 -529 0
-593 -530 0
-594 -531 0
-538 -535 0
-539 -536 0
-540 -537 0
-547 -544 0
-548 -545 0
-549 -546 0
-559 -553 0
-560 -554 0
-561 -555 0
-595 -574 0
-596 -575 0
-597 -576 0
